1 1
1 3
2 5
3 5
1 4
1 7
2 8
2 4
25 36
26 40
22 38
23 42
26 45
27 50
89 12
75 10
78 14
82 17
80 20
56 70
55 80
50 75
56 69
60 78
103 5
100 8
107 12
100 5
98 3
100 6
150 30
148 32
155 28
155 35
156 40
152 40
155 41
156 42
157 43
158 44
159 45
160 46